COMUNI = {
	bastia_umbra,
	narni,
	gubbio,
	citta_di_castello,
	foligno,
	umbertide,
	todi,
	corciano,
	orvieto,
	perugia,
	spoleto,
	amelia,
	assisi,
	terni,
	san_giustino,
	marsciano,
	magione,
	gualdo_tardino,
	castiglione_del_lago,
};

NUMERO_COMUNI = 19;

ABITANTI_PER_COMUNE = [21, 17, 30, 38, 55, 16, 15, 21, 19, 161, 36, 11, 27, 106, 11, 18, 14, 14, 15];

STRADE_TRA_COMUNI = [|
	false, false, false, false, false, false, false, false, false, true, false, false, true, false, false, false, false, false, false |
	false, false, false, false, false, false, false, false, false, false, false, true, false, true, false, false, false, false, false |
	false, false, false, false, false, true, false, false, false, false, false, false, false, false, false, false, false, true, false |
	false, false, false, false, false, true, false, false, false, false, false, false, false, false, true, false, false, false, false |
	false, false, false, false, false, false, false, false, false, false, false, false, true, false, false, false, false, false, false |
	false, false, true, true, false, false, false, false, false, true, false, false, false, false, false, false, false, false, false |
	false, false, false, false, false, false, false, false, true, false, false, true, false, false, false, true, false, false, false |
	false, false, false, false, false, false, false, false, false, true, false, false, false, false, false, false, true, false, false |
	false, false, false, false, false, false, true, false, false, false, false, false, false, false, false, false, false, false, false |
	true, false, false, false, false, true, false, true, false, false, false, false, false, false, false, true, false, false, false |
	false, false, false, false, false, false, false, false, false, false, false, false, false, true, false, false, false, false, false |
	false, true, false, false, false, false, true, false, false, false, false, false, false, false, false, false, false, false, false |
	true, false, false, false, true, false, false, false, false, false, false, false, false, false, false, false, false, false, false |
	false, true, false, false, false, false, false, false, false, false, true, false, false, false, false, false, false, false, false |
	false, false, false, true, false, false, false, false, false, false, false, false, false, false, false, false, false, false, false |
	false, false, false, false, false, false, true, false, false, true, false, false, false, false, false, false, false, false, false |
	false, false, false, false, false, false, false, true, false, false, false, false, false, false, false, false, false, false, true |
	false, false, true, false, false, false, false, false, false, false, false, false, false, false, false, false, false, false, false |
	false, false, false, false, false, false, false, false, false, false, false, false, false, false, false, false, true, false, false |
|];

RICHIESTE = [|
	2, 1, 17, 3, 6 |
	20, 15, 23, 3, 0 |
	23, 0, 7, 12, 4 |
	5, 14, 1, 22, 2 |
	1, 5, 4, 11, 1 |
	12, 19, 0, 8, 11 |
	20, 3, 30, 14, 22 |
	17, 3, 9, 3, 0 |
	1, 13, 21, 4, 3 |
	6, 3, 8, 12, 14 |
	23, 8, 0, 12, 17 |
	15, 10, 0, 0, 6 |
	12, 38, 4, 17, 4 |
	6, 5, 11, 7, 3 |
	27, 5, 0, 1, 8 |
	16, 0, 1, 12, 21 |
	15, 23, 3, 5, 1 |
	7, 18, 6, 8, 33 |
	2, 0, 14, 25, 48 |
|];
